Sun 20 May 09:16:28 CEST 2018
CPXPARAM_TimeLimit                               45
CPXPARAM_Threads                                 4
CPXPARAM_MIP_Strategy_CallbackReducedLP          0
Tried aggregator 3 times.
MIP Presolve eliminated 84 rows and 86 columns.
Aggregator did 56 substitutions.
Reduced MIP has 88 rows, 87 columns, and 200 nonzeros.
Reduced MIP has 84 binaries, 3 generals, 0 SOSs, and 14 indicators.
Presolve time = 0.00 sec. (0.38 ticks)
Found incumbent of value 2.000000 after 0.00 sec. (0.78 ticks)
Probing time = 0.00 sec. (0.20 ticks)
Cover probing fixed 0 vars, tightened 3 bounds.
Tried aggregator 3 times.
MIP Presolve modified 28 coefficients.
Aggregator did 42 substitutions.
Reduced MIP has 60 rows, 45 columns, and 144 nonzeros.
Reduced MIP has 42 binaries, 3 generals, 0 SOSs, and 0 indicators.
Presolve time = 0.00 sec. (0.24 ticks)
Probing time = 0.00 sec. (0.07 ticks)
Tried aggregator 2 times.
Aggregator did 14 substitutions.
Reduced MIP has 46 rows, 31 columns, and 116 nonzeros.
Reduced MIP has 28 binaries, 3 generals, 0 SOSs, and 0 indicators.
Presolve time = 0.00 sec. (0.13 ticks)
Probing time = 0.00 sec. (0.04 ticks)
Tried aggregator 1 time.
Reduced MIP has 46 rows, 31 columns, and 116 nonzeros.
Reduced MIP has 28 binaries, 3 generals, 0 SOSs, and 0 indicators.
Presolve time = 0.00 sec. (0.10 ticks)
Probing time = 0.00 sec. (0.04 ticks)
Clique table members: 16.
MIP emphasis: balance optimality and feasibility.
MIP search method: dynamic search.
Parallel mode: deterministic, using up to 4 threads.

Root node processing (before b&c):
  Real time             =    0.01 sec. (1.75 ticks)
Parallel b&c, 4 threads:
  Real time             =    0.00 sec. (0.00 ticks)
  Sync time (average)   =    0.00 sec.
  Wait time (average)   =    0.00 sec.
                          ------------
Total (root+branch&cut) =    0.01 sec. (1.75 ticks)
  | W
L | 0 1 2 3 4 5 6 
------------------
0 | . . 2 . . 1 . 
1 | . . . . . . . 

Boxes' corners:      (w,l)
    Box 1 is at 
        top left     (5,0)
        bottom right (5,0)

    Box 2 is at 
        top left     (2,0)
        bottom right (2,0)

    Roll length used: 1
In 0 seconds
